192 117 102 56 73 35 27 81 43 147 93 129 109 111 120 66 167 179 5 134 11 105 7 21 176 148 12 161 97 58 90 0 124 65 158 71 151 157 10 79 75 189 19 115 150 188 1 118 8 162 33 156 112 143 182 106 183 178 89 174 139 83 16 194 67 113 163 141 64 104 121 44 95 98 50 29 70 46 153 62 55 86 36 54 61 119 40 6 49 171 168 48 9 34 17 175 100 107 181 39 142 14 180 24 91 38 170 199 196 88 198 185 146 137 193 80 136 76 159 42 78 31 125 126 128 69 92 3 164 63 177 144 101 18 197 187 84 25 94 172 190 60 28 41 138 110 133 130 15 51 155 77 96 186 32 169 116 53 122 149 165 82 114 13 2 59 72 22 57 131 166 26 195 135 140 132 85 52 20 154 103 74 160 191 23 37 152 30 127 145 47 99 123 4 68 184 45 87 173 108